c Random generated cnf formula, satisfiable: false
p cnf 10 50
-7 -8 2 0
-4 -1 10 0
7 -4 3 0
-5 9 8 0
10 6 -4 0
-6 -1 9 0
-4 -9 5 0
6 -8 -2 0
6 -10 -7 0
7 2 5 0
-7 8 -6 0
3 7 -1 0
7 6 -10 0
2 5 1 0
-8 5 6 0
10 -6 -8 0
7 -6 -8 0
-8 10 -6 0
-7 -2 6 0
10 4 7 0
1 -5 2 0
-10 -8 1 0
5 -2 6 0
6 10 -2 0
2 1 -4 0
3 -10 1 0
6 -3 4 0
-8 4 -5 0
10 -7 3 0
8 -6 7 0
-3 9 -6 0
-6 -5 4 0
-1 -5 4 0
4 8 -3 0
-3 -5 -6 0
10 5 3 0
-6 4 -10 0
8 -7 6 0
-10 8 -3 0
-9 -3 -2 0
-10 -7 -6 0
-7 -9 -6 0
9 4 -3 0
-4 6 2 0
-10 -4 -2 0
-6 2 3 0
8 7 -9 0
-2 -8 7 0
3 7 1 0
1 -8 -6 0
